# Objective value = 82
WA1n 0
WA1p 0
WA2n 0
WA2p 1
WB1n 0
WB1p 0
WB2n 0
WB2p 1
WC1n 1
WC1p 0
WD1n 0
WD1p 1
WE1n 2
WE1p 0
WE2n 1
WE2p 0
WF1n 2
WF1p 0
WF2n 1
WF2p 0
WG1n 6
WG1p 0
WH1n 6
WH1p 0
WI1n 0
WI1p 6
WJ1n 0
WJ1p 6
WK1n 0
WK1p 26
WK2n 0
WK2p 1
WT1n 0
WT1p 14
WT2n 0
WT2p 1
5 7
a 0
b 1
c 0
d 1
e 0
f 1
g 0
h 0
i 0
j 0
k 0
l 0
m 1
n 1
o 1
p 1
q 1
r 1
